1	3	1	2	8	15	0	0	0	0	0	0
2000	1	0	0	0	0	0	0	0	0	0	0
250	1	0	77.75	0.39	1	0	0	0	0	0	0
250     1       0       77.75   0.39    1       0       0       0       0       0       0
250     1       0       77.75   0.39    1       0       0       0       0       0       0
50	150	0	0	0	0	960	0	0	99999	0	0
50	75	0	0	0	0	960	0	0	99999	0	0
50	25	0	0	0	0	960	0	0	99999	0	0
50	75	0	0	0	0	960	0	0	0	0	0
50	25	0	0	0	0	960	0	0	0	0	0
14	59	0	0	0	0	960	0	0	0	0	0
10	28	0	0	0	0	960	0	0	0	0	0
22	34	0	0	0	0	960	0	0	0	0	0
27	10	0	0	0	0	960	0	0	0	0	0
61	14	0	0	0	0	960	0	0	0	0	0
21      83      0       0       0       0       960     0       0       0       0       0
6	68	30	3	27	140	260	10	0	0	0	0
10	40	30	8	22	101	1019	10	0	0	0	0
45	65	9	6	3	719	839	10	0	0	0	0
22	75	30	9	21	101	1020	10	0	0	0	0
26	52	9	5	4	101	1036	10	0	0	0	0
42	12	10	3	7	101	1012	10	0	0	0	0
25	85	20	6	14	401	521	10	0	0	0	0
65	20	6	2	4	101	1011	10	0	0	0	0
20	20	8	8	0	101	1014	10	0	0	0	0
5	5	16	16	0	101	980	10	0	0	0	0
40	15	40	15	25	101	1016	10	0	0	0	0
42	15	10	4	6	309	429	10	0	0	0	0
60	12	31	6	25	101	1008	10	0	0	0	0
42	5	10	1	9	101	1005	10	0	0	0	0
21	24	28	25	3	101	1018	10	0	0	0	0
